p cnf 38 156
-1 -2 0
-1 -3 0
-1 -4 0
-1 -5 0
-2 -3 0
-2 -4 0
-2 -5 0
-3 -4 0
-3 -5 0
-4 -5 0
1 2 3 4 5 0
-1 -6 0
-1 -7 0
-1 -8 0
-1 -9 0
-1 -10 0
-6 -7 0
-6 -8 0
-6 -9 0
-6 -10 0
-7 -8 0
-7 -9 0
-7 -10 0
-8 -9 0
-8 -10 0
-9 -10 0
1 6 7 8 9 10 0
-6 -11 0
-6 -12 0
-6 -13 0
-6 -14 0
-11 -12 0
-11 -13 0
-11 -14 0
-12 -13 0
-12 -14 0
-13 -14 0
6 11 12 13 14 0
-7 -15 0
-7 -16 0
-7 -17 0
-15 -16 0
-15 -17 0
-16 -17 0
7 15 16 17 0
-8 -18 0
-8 -19 0
-8 -20 0
-18 -19 0
-18 -20 0
-19 -20 0
8 18 19 20 0
-21 -22 0
-21 -23 0
-22 -23 0
21 22 23 0
-11 -15 0
-11 -18 0
-15 -18 0
11 15 18 0
-2 -19 0
-2 -21 0
-2 -24 0
-2 -25 0
-2 -26 0
-19 -21 0
-19 -24 0
-19 -25 0
-19 -26 0
-21 -24 0
-21 -25 0
-21 -26 0
-24 -25 0
-24 -26 0
-25 -26 0
2 19 21 24 25 26 0
-27 -28 0
-27 -29 0
-28 -29 0
27 28 29 0
-30 -31 0
30 31 0
-20 -22 0
-20 -32 0
-22 -32 0
20 22 32 0
-12 -27 0
-12 -30 0
-12 -33 0
-12 -34 0
-12 -35 0
-27 -30 0
-27 -33 0
-27 -34 0
-27 -35 0
-30 -33 0
-30 -34 0
-30 -35 0
-33 -34 0
-33 -35 0
-34 -35 0
12 27 30 33 34 35 0
-13 -24 0
-13 -36 0
-13 -37 0
-24 -36 0
-24 -37 0
-36 -37 0
13 24 36 37 0
-3 -9 0
-3 -23 0
-3 -25 0
-3 -28 0
-3 -31 0
-9 -23 0
-9 -25 0
-9 -28 0
-9 -31 0
-23 -25 0
-23 -28 0
-23 -31 0
-25 -28 0
-25 -31 0
-28 -31 0
3 9 23 25 28 31 0
-4 -10 0
-4 -16 0
-4 -29 0
-4 -33 0
-4 -36 0
-10 -16 0
-10 -29 0
-10 -33 0
-10 -36 0
-16 -29 0
-16 -33 0
-16 -36 0
-29 -33 0
-29 -36 0
-33 -36 0
4 10 16 29 33 36 0
-5 -14 0
-5 -17 0
-5 -38 0
-14 -17 0
-14 -38 0
-17 -38 0
5 14 17 38 0
-32 -34 0
-32 -38 0
-34 -38 0
32 34 38 0
-26 -35 0
-26 -37 0
-35 -37 0
26 35 37 0
